Ag16 C30 O16                            
   1.00000000000000     
    12.3307199999999995    0.0000000000000000    0.0000000000000000
    -3.6992159999999981    6.4072320000000005    0.0000000000000000
     0.0000000000000024    0.0000000000000042   40.0000000000000071
  C               Ag              O             
    30    16    16
Direct
  0.1335756679829345  0.1116145091901111  0.4911458635059017
  0.1336616385351799  0.4453023587889632  0.4907307726781188
  0.1336550502241517  0.7785808508758683  0.4913182470175814
  0.3335729174089239  0.1115745869711728  0.4911314331538598
  0.3336794335054896  0.4452437919639472  0.4906260727148734
  0.3337095289704209  0.7786393995666698  0.4913709256972821
  0.5335187144305905  0.1115522434620374  0.4911681985408168
  0.5337162046796945  0.4452410694583213  0.4905795479563255
  0.5336502548562674  0.7784744503670026  0.4914213058923699
  0.7335379875217087  0.1115507027935672  0.4911966483409784
  0.7336733738375056  0.4452603750601495  0.4906725879582316
  0.7335627577420337  0.7783772592516475  0.4913745617626620
  0.9335663313982593  0.1115673559352939  0.4912021813231534
  0.9336576687313299  0.4452699184589062  0.4907768453054865
  0.9335313187258092  0.7783937857859814  0.4912859727832201
  0.0673046305229423  0.2244773979960902  0.4909330783800614
  0.0674138713820226  0.5580436909005309  0.4908507896405612
  0.0673760935885887  0.8911784863800497  0.4914356126618076
  0.2673642014389913  0.2244634933751582  0.4908028911355956
  0.2675511155993652  0.5581556473960331  0.4908537854394373
  0.2674183235818781  0.8912308116496773  0.4914693789369473
  0.4674141539674100  0.2244933474402434  0.4908288423199062
  0.4675512244729264  0.5581209182273512  0.4908393709630920
  0.4674401059522273  0.8911729479481502  0.4914793788848065
  0.6673925977562754  0.2244694805741421  0.4909367050204914
  0.6674103924618143  0.5580484097131987  0.4908132380542706
  0.6673632657090197  0.8910067374746299  0.4914933397421594
  0.8673066428208638  0.2243908610651965  0.4910048084630317
  0.8673570815956707  0.5580066910616821  0.4908258138690910
  0.8673331775111504  0.8910524335578091  0.4914377471363405
  0.3444508290309363  0.6272705394826279  0.6183781279750348
  0.5946533235999806  0.6272454099078214  0.6183265059709304
  0.8435034536153689  0.6264664283802109  0.6185800433707801
  0.0926675553143862  0.6258746457535345  0.6186075639716712
  0.4682219252261527  0.1251583473138150  0.6265988555381103
  0.7182431528506074  0.1269386691382044  0.6267269158228614
  0.9680719805771301  0.1276653614157811  0.6269313472527998
  0.2174590496999400  0.1264972367833753  0.6267906584042989
  0.2766812729546776  0.8686769805306541  0.6761400995183434
  0.5270465437524835  0.8684852546005204  0.6761510073647649
  0.7768019356666818  0.8682151356344845  0.6762632956966379
  0.0265003075119691  0.8682806445524978  0.6762950458586420
  0.1471275105207167  0.3488102697492990  0.5695711218462650
  0.3972727235606300  0.3489972169816759  0.5695522698581601
  0.6473778789834503  0.3495405211837302  0.5694051460699744
  0.8968098877731062  0.3488955816045798  0.5694666586804323
  0.3341866598508127  0.5572293596161584  0.5673258244918816
  0.5837786709514677  0.5576244909767812  0.5672201553538735
  0.8338705016994994  0.5580130660098789  0.5674666676385763
  0.0835770123873114  0.5570431794755490  0.5675734453267337
  0.3419291687416691  0.6651289985091577  0.6700293444248356
  0.5914742806657441  0.6643577215692958  0.6700213219960661
  0.8414555650834054  0.6639552596019266  0.6702906964541091
  0.0916406021819345  0.6647535975636003  0.6702436057196756
  0.4633091956915199  0.0755077220455430  0.6786995937203698
  0.7132091181507864  0.0757837913900281  0.6787625079641731
  0.9631485245849333  0.0755519074629809  0.6789799085271538
  0.2129558607774094  0.0756595574407178  0.6788075791815247
  0.2115032276093446  0.1432039638243538  0.5747199150215025
  0.4615072490349171  0.1436350421660522  0.5745327894065327
  0.7109647020693589  0.1434951978744299  0.5746573340249856
  0.9610752170538622  0.1435536023833039  0.5748955922699621