Cu16 C30 O16                            
   1.00000000000000     
    12.3307199999999995    0.0000000000000000    0.0000000000000000
    -3.6992159999999981    6.4072320000000005    0.0000000000000000
     0.0000000000000024    0.0000000000000042   40.0000000000000071
  C               Cu              O             
    30    16    16
Direct
  0.1331435371134598  0.1103881589462871  0.4957747922790787
  0.1331870850982039  0.4439340332598685  0.4956797494839877
  0.1331882325100189  0.7772596026074118  0.4959831731280748
  0.3331430378462940  0.1104361094059470  0.4955791109753006
  0.3331524502802798  0.4438310016471121  0.4953447326244174
  0.3331802366831658  0.7772195400883481  0.4959213921641442
  0.5331275895039422  0.1104313388929416  0.4956941937805748
  0.5331894432432199  0.4438259860457526  0.4953357110251016
  0.5331671416871200  0.7771967724785536  0.4960045755131284
  0.7331118773240819  0.1103236879121303  0.4959879507085428
  0.7332054120209740  0.4438781215722032  0.4956588877706523
  0.7331512259540153  0.7771765804213437  0.4961072271557320
  0.9331281703347044  0.1103422131292984  0.4960353561309329
  0.9332096835726841  0.4439710648558532  0.4958856631373691
  0.9331779529605251  0.7772423873086303  0.4960929226697715
  0.0668751727700763  0.2229616547197384  0.4957840837578195
  0.0670114469972609  0.5566314697274444  0.4958210379346569
  0.0669514813271476  0.8897637016914972  0.4960586569162161
  0.2669168530125320  0.2230638507927706  0.4954137712138056
  0.2670146761242905  0.5565751125025901  0.4956095126954980
  0.2669619134137997  0.8898124322765343  0.4959472946544058
  0.4669293655144723  0.2230612613267029  0.4953662334089652
  0.4669531628396118  0.5565008449916621  0.4955362631488006
  0.4669359253608830  0.8897374628241974  0.4959863261358134
  0.6669223148972576  0.2230194066821916  0.4957037542179789
  0.6669441982689690  0.5565590684708142  0.4956759466920744
  0.6669279197474898  0.8897206655195179  0.4961345874288760
  0.8668590790391161  0.2229289073704890  0.4959750910147170
  0.8669685350979808  0.5566000139846886  0.4958581256862866
  0.8669249337450254  0.8896837016198618  0.4961721910840174
  0.3398411684441654  0.6173947835115456  0.6179367488460423
  0.5899637661611428  0.6176801396357995  0.6179130885408464
  0.8399371693297228  0.6173150813135637  0.6180105522626632
  0.0897257697825383  0.6170392221147598  0.6180306920732436
  0.4641614479304038  0.1145517141416876  0.6184979085407313
  0.7141493410553427  0.1146315409713574  0.6185650904679255
  0.9642813072597886  0.1149654534390403  0.6185945464873560
  0.2141928829034189  0.1145947135945457  0.6185181324544227
  0.2763248852244616  0.8646818244749110  0.6626457488902120
  0.5263097112372653  0.8645341713249567  0.6626326873302210
  0.7763333445173421  0.8646551198200954  0.6626886292358427
  0.0262325175704376  0.8645439499340348  0.6627368270158530
  0.1517976463180584  0.3651175938195935  0.5740532759172648
  0.4020478355623213  0.3654534778806256  0.5740912275618656
  0.6520652636263534  0.3654030993258164  0.5740917126228823
  0.9020914836516308  0.3653419791924428  0.5740435181131487
  0.3316534215018651  0.5509915123597967  0.5743314735366893
  0.5815628833097582  0.5509819732083528  0.5743070270717630
  0.8316633408664936  0.5509292934481682  0.5744056926259041
  0.0816690581857183  0.5507572685037393  0.5744255329361383
  0.3469712150466641  0.6802492564651664  0.6616923772878860
  0.5969806465435563  0.6801529077606565  0.6616851533094862
  0.8467294885929669  0.6800352876562631  0.6617651287294143
  0.0968333356807839  0.6800889051086831  0.6617740297853534
  0.4558421404771465  0.0492369627610866  0.6621893840656516
  0.7057677110537914  0.0493102305025537  0.6622598606995967
  0.9557244734231347  0.0491496581800417  0.6622687896099403
  0.2056859218413188  0.0491616967855083  0.6622071060266063
  0.2224351989710808  0.1798727652756237  0.5748560574473238
  0.4724390474525437  0.1799851605624216  0.5748390450968472
  0.7224164098618638  0.1798205813538468  0.5749093909579648
  0.9723507264119136  0.1797652361130556  0.5749221399162748