C  Ag O  C  O 
 1.0000000000000000
    12.3307199999999995    0.0000000000000000    0.0000000000000000
    -3.6992159999999981    6.4072320000000005    0.0000000000000000
     0.0000000000000024    0.0000000000000042   40.0000000000000071
 C   Ag  O   C   O  
  30  16  16   1   1
Cartesian
  1.2341979824823253  0.7151400549471760 19.6458345402360735
  0.0008746290486428  2.8531555229081280 19.6292309071247573
 -1.2320757399536717  4.9885481423190923 19.6527298807032587
  3.7004557468354129  0.7148842640284836 19.6452573261543968
  2.4674547051811087  2.8527802716727479 19.6250429085949385
  1.2345234379587322  4.9889232773643535 19.6548370278912827
  6.1660140385529081  0.7147411039817591 19.6467279416326761
  4.9340621913706704  2.8527628279475814 19.6231819182530245
  3.7005467281724540  4.9878664095738712 19.6568522356947994
  8.6324013889084767  0.7147312325614353 19.6478659336391388
  7.3996066406571037  2.8528865234173941 19.6269035183292679
  6.1659713566850094  4.9872436835494520 19.6549824705064786
 11.0988332857456111  0.7148379331040072 19.6480872529261390
  9.8655216822969063  2.8529476701872962 19.6310738122194621
  8.6316665557586401  4.9873495728890855 19.6514389113288068
 -0.0004758286236479  1.4382787677172868 19.6373231352024575
 -1.2330625779505624  3.5755153937359925 19.6340315856224485
 -2.4658659709381761  5.7099873156458187 19.6574245064723065
  2.4664541598585212  1.4381896775851033 19.6321156454238270
  1.2343595908056426  3.5762327249765824 19.6341514175774918
  0.0006051928100672  5.7103225757877860 19.6587751574778942
  4.9331036738645162  1.4383809595062473 19.6331536927962524
  3.7006334039914974  3.5760102071356705 19.6335748385236819
  2.4672318354502871  5.7099518296277223 19.6591751553922585
  7.3990701589537080  1.4382280389580233 19.6374682008196615
  6.1653090685511271  3.5755456282635198 19.6325295221708274
  4.9330431883695756  5.7088868805630497 19.6597335896863790
  9.8644451032579354  1.4377243055244828 19.6401923385212669
  8.6309500334909401  3.5752783271845261 19.6330325547636448
  7.3986471395443107  5.7091796659694687 19.6575098854536208
  1.8883355658882977  3.9571333827053845 25.0235516765291841
  5.0071199142207945  3.9519063422317102 25.0265004043815011
  8.0792087856924280  3.9468104719610424 25.0301382844673412
 -1.1847597255344244  3.9493279422522600 25.0303514812584460
  5.2793035605769489  0.7454261806878120 25.0779236094397397
  8.3963748296705845  0.7383125588028465 25.0701828073724222
 11.4710177712442736  0.7357516627850573 25.0724278002305354
  2.2078956772573619  0.7423820859213581 25.0790898969549403
  0.1984133032540898  5.5233937193145159 27.3037471228780113
  3.2924937981599798  5.5238898579189701 27.2795475106848180
  6.3860313147338719  5.5203339893907453 27.3020928532107519
 -2.8733489158784749  5.5207687835935628 27.3018067986436996
  0.5205215719751233  2.3294023908355377 22.8357439273025022
  3.6028883466577049  2.3350770967431731 22.8369504345424659
  6.6849079968502547  2.3306803763594286 22.8355826729702684
  9.7678050036611470  2.3250647203346797 22.8344286689369582
  2.0557000035009390  3.7070742927896774 22.9537362507664646
  5.1414847387911360  3.7076187700892822 22.9558247305390530
  8.2254654776308929  3.7012195755988557 22.9537436510768025
 -1.0264335234505280  3.7003531201542388 22.9556988211564530
  1.7272480312479881  4.1533344158966923 27.1112317685718551
  4.8617597224472036  4.1505246796368400 27.1135950762307765
  7.9250781152945216  4.1535035880209303 27.1187838497108515
 -1.3315928138718780  4.1567955645025867 27.1191274041176342
  5.4210361096033495  0.4929578989518797 27.1586294216998638
  8.5577305539375050  0.4905045897075952 27.1514782325758510
 11.6161879763328368  0.4834090602540841 27.1560819229347601
  2.3575911912542296  0.4867817118099895 27.1626393310828860
  2.0685418747281350  0.9665310602076557 23.0041689252318839
  5.1457159047381520  0.9682583242426797 23.0073195938208244
  8.2278030334772225  0.9602540326450557 23.0006037956400569
 11.3154207395851341  0.9582581897487086 22.9977786545041631
  3.2910964096568898  5.4800249099704761 29.6480132449074247
  3.2915410036571946  5.5357883554465452 30.7870861807041649
