C  Ag O  C  O  H 
 1.0000000000000000
    12.3307199999999995    0.0000000000000000    0.0000000000000000
    -3.6992159999999981    6.4072320000000005    0.0000000000000000
     0.0000000000000024    0.0000000000000042   40.0000000000000071
 C   Ag  O   C   O   H  
  30  16  16   1   1   2
Cartesian
  1.2341979824823253  0.7151400549471760 19.6458345402360735
  0.0008746290486428  2.8531555229081280 19.6292309071247573
 -1.2320757399536717  4.9885481423190923 19.6527298807032587
  3.7004557468354129  0.7148842640284836 19.6452573261543968
  2.4674547051811087  2.8527802716727479 19.6250429085949385
  1.2345234379587322  4.9889232773643535 19.6548370278912827
  6.1660140385529081  0.7147411039817591 19.6467279416326761
  4.9340621913706704  2.8527628279475814 19.6231819182530245
  3.7005467281724540  4.9878664095738712 19.6568522356947994
  8.6324013889084767  0.7147312325614353 19.6478659336391388
  7.3996066406571037  2.8528865234173941 19.6269035183292679
  6.1659713566850094  4.9872436835494520 19.6549824705064786
 11.0988332857456111  0.7148379331040072 19.6480872529261390
  9.8655216822969063  2.8529476701872962 19.6310738122194621
  8.6316665557586401  4.9873495728890855 19.6514389113288068
 -0.0004758286236479  1.4382787677172868 19.6373231352024575
 -1.2330625779505624  3.5755153937359925 19.6340315856224485
 -2.4658659709381761  5.7099873156458187 19.6574245064723065
  2.4664541598585212  1.4381896775851033 19.6321156454238270
  1.2343595908056426  3.5762327249765824 19.6341514175774918
  0.0006051928100672  5.7103225757877860 19.6587751574778942
  4.9331036738645162  1.4383809595062473 19.6331536927962524
  3.7006334039914974  3.5760102071356705 19.6335748385236819
  2.4672318354502871  5.7099518296277223 19.6591751553922585
  7.3990701589537080  1.4382280389580233 19.6374682008196615
  6.1653090685511271  3.5755456282635198 19.6325295221708274
  4.9330431883695756  5.7088868805630497 19.6597335896863790
  9.8644451032579354  1.4377243055244828 19.6401923385212669
  8.6309500334909401  3.5752783271845261 19.6330325547636448
  7.3986471395443107  5.7091796659694687 19.6575098854536208
  1.8899028681859007  3.9502610563607679 25.0195634332646435
  5.0033601080082093  3.9529424594827960 25.0216903120840293
  8.0760980227839507  3.9528888430763534 25.0286762899664517
 -1.1792136107006541  3.9533956156100447 25.0298414176095854
  5.2820721807106574  0.7485593464291055 25.0734583065409389
  8.3937165287876407  0.7470109155829147 25.0668203128785478
 11.4644161837477938  0.7355649372494681 25.0719844469299460
  2.2116188109034489  0.7418281561484488 25.0783519469320240
  0.2072219020644064  5.5276795511844270 27.3025904313569967
  3.2927718705721074  5.5246056514094466 27.2241701212973020
  6.3786630898755909  5.5214171260222011 27.2992906263969033
 -2.8724904471645916  5.5244053703116229 27.2998923295383840
  0.5205215719751233  2.3294023908355377 22.8357439273025022
  3.6028883466577049  2.3350770967431731 22.8369504345424659
  6.6849079968502547  2.3306803763594286 22.8355826729702684
  9.7678050036611470  2.3250647203346797 22.8344286689369582
  2.0557000035009390  3.7070742927896774 22.9537362507664646
  5.1414847387911360  3.7076187700892822 22.9558247305390530
  8.2254654776308929  3.7012195755988557 22.9537436510768025
 -1.0264335234505280  3.7003531201542388 22.9556988211564530
  1.7482284488011084  4.1574231138802693 27.1020695488487604
  4.8438265411930699  4.1539984518074435 27.1037136241218093
  7.9240467407010726  4.1601645528197331 27.1169705732813391
 -1.3250429233096221  4.1641934893976229 27.1179278323375250
  5.4421830637708792  0.4926705608206653 27.1487093646184441
  8.5360111822941498  0.4893191600711648 27.1433635552689658
 11.6104716999687287  0.4820254836196142 27.1548592270060674
  2.3611779963076991  0.4863353801423472 27.1607842742097993
  2.0685418747281350  0.9665310602076557 23.0041689252318839
  5.1457159047381520  0.9682583242426797 23.0073195938208244
  8.2278030334772225  0.9602540326450557 23.0006037956400569
 11.3154207395851341  0.9582581897487086 22.9977786545041631
  3.2914568347104529  5.5146405316418816 30.4118048322573173
  3.2908034494733127  5.5108961005160362 31.6308825214474574
  3.2877997907602960  6.4740605018965836 29.8327205063791112
  3.2956935837867491  4.5591578070032464 29.8261331510734742
