C  Cu O 
 1.0000000000000000
    12.3307199999999995    0.0000000000000000    0.0000000000000000
    -3.6992159999999981    6.4072320000000005    0.0000000000000000
     0.0000000000000024    0.0000000000000042   40.0000000000000071
 C   Cu  O  
  30  16  16
Cartesian
  1.2334060321710343  0.7072825444217393 19.8309916911631525
  0.0000847751826889  2.8443883437916964 19.8271899793595097
 -1.2329443557430368  4.9800825981334933 19.8393269251229931
  3.6993664967398270  0.7075897741412868 19.8231644390120287
  2.4661828391310303  2.8437281963454315 19.8137893049767015
  1.2332492498663901  4.9798259082793486 19.8368556865657730
  6.1653376547138592  0.7075592083577021 19.8277677512229928
  4.9328015427918146  2.8436960602239019 19.8134284410040635
  3.6993160014431816  4.9796800309213092 19.8401830205251386
  8.6316861364540483  0.7068694635486167 19.8395180283417112
  7.3989495887454293  2.8440301046373131 19.8263555108260974
  6.1653384437757772  4.9795506557262081 19.8442890862292849
 11.0979625122262373  0.7069881589128632 19.8414142452373206
  9.8648024427715590  2.8446256138185002 19.8354265254947677
  8.6315685731191287  4.9799722957202510 19.8437169067908599
 -0.0001642901462947  1.4285670488932607 19.8313633503127846
 -1.2328006492012105  3.5664669650447154 19.8328415173862815
 -2.4658681516861249  5.7009224619162167 19.8423462766486480
  2.4661156119044603  1.4292218428426671 19.8165508485522253
  1.2335916458079321  3.5661058712301976 19.8243805078199244
  0.0002242184935395  5.7012346900800459 19.8378917861762361
  4.9324234790566939  1.4292052515328151 19.8146493363586096
  3.6992518742829845  3.5656300220576194 19.8214505259520273
  2.4663250952872739  5.7007543434060093 19.8394530454325384
  7.3986353692406448  1.4289370791151539 19.8281501687191586
  6.1650699534468121  3.5660030733963941 19.8270378676829786
  4.9324325171683228  5.7006467191779526 19.8453834971550442
  9.8643344020817807  1.4283572290292350 19.8390036405886789
  8.6313625777709930  3.5662654208031470 19.8343250274514666
  7.3986764350570429  5.7004098828972314 19.8468876433606951
  1.9039300935155405  3.9494466759092455 24.7158340330186412
  4.9873859924638886  3.9508856990273218 24.7151461147972284
  8.0706563924482069  3.9489155530333631 24.7195741851030562
 -1.1786468583705889  3.9475766859146768 24.7204307145061684
  5.3016622214476348  0.7402613973919153 24.7386165735660626
  8.3839829487007922  0.7407883920251753 24.7404891039548147
 11.4666054885964890  0.7417522906750301 24.7419087128190043
  2.2187673148130291  0.7403076019645726 24.7392678924137108
  0.2090422200018995  5.5398014988179964 26.5488588978265767
  3.2918998913743249  5.5397186410671786 26.5484414555363308
  6.3743647196391144  5.5398687188620972 26.5500540173186117
 -2.8739483242462667  5.5393853872399434 26.5506703602748537
  0.5229084804659700  2.3383489126539936 22.9484142700235907
  3.6055304130560510  2.3402042106115299 22.9476081151339031
  6.6887693936814401  2.3400165721102275 22.9480649315824827
  9.7709705706739118  2.3385175937892000 22.9508973657530326
  2.0595436928839042  3.5171319309619995 22.9777235704171545
  5.1439217643165547  3.5179252650741502 22.9775588329862011
  8.2276173006784887  3.5178052039922729 22.9819688069539687
 -1.0219514902631543  3.5171875306527873 22.9827504680861772
  1.7547703720484336  4.3685164856168441 26.4654519040893028
  4.8375416507129039  4.3685796654134315 26.4650414666950837
  7.9195369525517378  4.3682296635656810 26.4688783241180410
 -1.3282026839416332  4.3682679934815489 26.4694522382277633
  5.4450443893477773  0.3054909609042744 26.4847512225467909
  8.5276586462944923  0.3057869377241659 26.4869382562966571
 11.6101763075173547  0.3056300455449325 26.4879623660409003
  2.3616354897546046  0.3052385160798053 26.4854573686914314
  2.0682195718018681  1.1631171402254163 22.9993846318685478
  5.1499136020626803  1.1644673162180728 22.9994323331525905
  8.2325816659313809  1.1619537433181146 23.0002352072864049
 11.3156563855596417  1.1610869967959869 23.0012296517521406
