C  Cu O  C  O  H 
 1.0000000000000000
    12.3307199999999995    0.0000000000000000    0.0000000000000000
    -3.6992159999999981    6.4072320000000005    0.0000000000000000
     0.0000000000000024    0.0000000000000042   40.0000000000000071
 C   Cu  O   C   O   H  
  30  16  16   1   2   1
Cartesian
  1.2334060321710341  0.7072825444217393 19.8309916911631525
  0.0000847751826889  2.8443883437916964 19.8271899793595097
 -1.2329443557430366  4.9800825981334933 19.8393269251229931
  3.6993664967398270  0.7075897741412868 19.8231644390120287
  2.4661828391310303  2.8437281963454315 19.8137893049767015
  1.2332492498663896  4.9798259082793477 19.8368556865657730
  6.1653376547138592  0.7075592083577021 19.8277677512229928
  4.9328015427918146  2.8436960602239019 19.8134284410040635
  3.6993160014431821  4.9796800309213083 19.8401830205251386
  8.6316861364540500  0.7068694635486167 19.8395180283417112
  7.3989495887454293  2.8440301046373131 19.8263555108260974
  6.1653384437757790  4.9795506557262073 19.8442890862292849
 11.0979625122262373  0.7069881589128632 19.8414142452373206
  9.8648024427715590  2.8446256138185002 19.8354265254947677
  8.6315685731191287  4.9799722957202501 19.8437169067908599
 -0.0001642901462945  1.4285670488932605 19.8313633503127846
 -1.2328006492012102  3.5664669650447154 19.8328415173862815
 -2.4658681516861245  5.7009224619162158 19.8423462766486480
  2.4661156119044607  1.4292218428426668 19.8165508485522253
  1.2335916458079321  3.5661058712301976 19.8243805078199244
  0.0002242184935399  5.7012346900800459 19.8378917861762361
  4.9324234790566948  1.4292052515328149 19.8146493363586096
  3.6992518742829845  3.5656300220576194 19.8214505259520273
  2.4663250952872744  5.7007543434060084 19.8394530454325384
  7.3986353692406448  1.4289370791151537 19.8281501687191586
  6.1650699534468139  3.5660030733963941 19.8270378676829786
  4.9324325171683245  5.7006467191779517 19.8453834971550442
  9.8643344020817825  1.4283572290292348 19.8390036405886789
  8.6313625777709930  3.5662654208031470 19.8343250274514666
  7.3986764350570438  5.7004098828972305 19.8468876433606951
  1.9065790450796998  3.9362476336133101 24.7237979714796978
  4.9768543989389764  3.9357666657278485 24.7223981555305414
  8.0685258194540168  3.9602208067313174 24.7255050220411512
 -1.1635770903163463  3.9417545699255410 24.7313324301818263
  5.3147563872077734  0.7564086598796570 24.7466195566282430
  8.3853400349122040  0.7495187567519064 24.7468793417698940
 11.4560418432167648  0.7382925743967680 24.7481372263487813
  2.2253059051887205  0.7286404213670155 24.7456614792852250
  0.2366375697557057  5.5399592375406161 26.5588332622528291
  3.2991441227626286  5.5401389883314369 26.5599198432595784
  6.3638055136266463  5.5396493292213229 26.5612247259121048
 -2.8616794871450923  5.5390052072712050 26.7057672883220398
  0.5229084804659705  2.3383489126539931 22.9484142700235907
  3.6055304130560524  2.3402042106115295 22.9476081151339031
  6.6887693936814401  2.3400165721102271 22.9480649315824827
  9.7709705706739136  2.3385175937891995 22.9508973657530326
  2.0595436928839050  3.5171319309619995 22.9777235704171545
  5.1439217643165556  3.5179252650741502 22.9775588329862011
  8.2276173006784887  3.5178052039922729 22.9819688069539687
 -1.0219514902631546  3.5171875306527873 22.9827504680861772
  1.7698182843497876  4.3613628271724245 26.4751185352520260
  4.8325013090720184  4.3611981725079429 26.4719343096487236
  7.8685432656346910  4.3613010567238053 26.4725382579822188
 -1.2546620533090633  4.3461816212689017 26.4874287482239197
  5.4634804820061920  0.3140973190725945 26.4922525581815691
  8.5272902490733617  0.3120145726440753 26.4942720179114062
 11.5547881825089647  0.3251065631466143 26.4990750840403990
  2.4326114308296032  0.3154636516101271 26.4902923264965331
  2.0682195718018681  1.1631171402254163 22.9993846318685478
  5.1499136020626821  1.1644673162180725 22.9994323331525905
  8.2325816659313809  1.1619537433181146 23.0002352072864049
 11.3156563855596435  1.1610869967959869 23.0012296517521406
 -2.8694498566018014  5.5367893359053193 28.7008461204439165
 -3.9120194786180456  5.5340248614522016 29.3037513678673101
 -1.6582099798681467  5.5399434309252236 29.3123994066155511
 -1.8581701427866628  5.5395459598811589 30.2753529365465184
