C  Cu O  C  O  H 
 1.0000000000000000
    12.3307199999999995    0.0000000000000000    0.0000000000000000
    -3.6992159999999981    6.4072320000000005    0.0000000000000000
     0.0000000000000024    0.0000000000000042   40.0000000000000071
 C   Cu  O   C   O   H  
  30  16  16   1   1   1
Cartesian
  1.2334060321710341  0.7072825444217393 19.8309916911631525
  0.0000847751826889  2.8443883437916964 19.8271899793595097
 -1.2329443557430366  4.9800825981334933 19.8393269251229931
  3.6993664967398270  0.7075897741412868 19.8231644390120287
  2.4661828391310303  2.8437281963454315 19.8137893049767015
  1.2332492498663896  4.9798259082793477 19.8368556865657730
  6.1653376547138592  0.7075592083577021 19.8277677512229928
  4.9328015427918146  2.8436960602239019 19.8134284410040635
  3.6993160014431821  4.9796800309213083 19.8401830205251386
  8.6316861364540500  0.7068694635486167 19.8395180283417112
  7.3989495887454293  2.8440301046373131 19.8263555108260974
  6.1653384437757790  4.9795506557262073 19.8442890862292849
 11.0979625122262373  0.7069881589128632 19.8414142452373206
  9.8648024427715590  2.8446256138185002 19.8354265254947677
  8.6315685731191287  4.9799722957202501 19.8437169067908599
 -0.0001642901462945  1.4285670488932605 19.8313633503127846
 -1.2328006492012102  3.5664669650447154 19.8328415173862815
 -2.4658681516861245  5.7009224619162158 19.8423462766486480
  2.4661156119044607  1.4292218428426668 19.8165508485522253
  1.2335916458079321  3.5661058712301976 19.8243805078199244
  0.0002242184935399  5.7012346900800459 19.8378917861762361
  4.9324234790566948  1.4292052515328149 19.8146493363586096
  3.6992518742829845  3.5656300220576194 19.8214505259520273
  2.4663250952872744  5.7007543434060084 19.8394530454325384
  7.3986353692406448  1.4289370791151537 19.8281501687191586
  6.1650699534468139  3.5660030733963941 19.8270378676829786
  4.9324325171683245  5.7006467191779517 19.8453834971550442
  9.8643344020817825  1.4283572290292348 19.8390036405886789
  8.6313625777709930  3.5662654208031470 19.8343250274514666
  7.3986764350570438  5.7004098828972305 19.8468876433606951
  1.9036678159713967  3.9348298681854286 24.7239569411152651
  4.9782961403939581  3.9363971267007050 24.7225712311524717
  8.0585622325150688  3.9565481859493894 24.7225332289372801
 -1.1671193528280392  3.9375144690060244 24.7332350101422946
  5.3086825845571797  0.7547515172702811 24.7470207154773085
  8.3844056651290835  0.7517457598460000 24.7475810986467764
 11.4552889366106108  0.7409106856130120 24.7464365311132717
  2.2242973955913019  0.7343285378476482 24.7482397971011636
  0.2270632420382759  5.5386755514345847 26.5626402865376754
  3.2915542425990143  5.5400248944785204 26.5608498240070787
  6.3547231921996348  5.5421935806547546 26.5623277960187778
 -2.8816707871127019  5.5406345666152808 26.6517065190272824
  0.5229084804659705  2.3383489126539931 22.9484142700235907
  3.6055304130560524  2.3402042106115295 22.9476081151339031
  6.6887693936814401  2.3400165721102271 22.9480649315824827
  9.7709705706739136  2.3385175937891995 22.9508973657530326
  2.0595436928839050  3.5171319309619995 22.9777235704171545
  5.1439217643165556  3.5179252650741502 22.9775588329862011
  8.2276173006784887  3.5178052039922729 22.9819688069539687
 -1.0219514902631546  3.5171875306527873 22.9827504680861772
  1.7638173110952162  4.3606270204094661 26.4754121511890830
  4.8250183609622592  4.3623836261114102 26.4717222462588211
  7.8598964227025778  4.3601984386856660 26.4675100004618180
 -1.2734312861809829  4.3491922557574689 26.4892092227144182
  5.4548025351228420  0.3122720284280414 26.4936078817881473
  8.5173803186667385  0.3147574960194703 26.4961613534024742
 11.5509382992331204  0.3255548228683015 26.4964135035872914
  2.4144161389543868  0.3150404703766246 26.4959444391426260
  2.0682195718018681  1.1631171402254163 22.9993846318685478
  5.1499136020626821  1.1644673162180725 22.9994323331525905
  8.2325816659313809  1.1619537433181146 23.0002352072864049
 11.3156563855596435  1.1610869967959869 23.0012296517521406
 -2.9792514194938478  5.5368047684258430 28.7551639550860827
 -3.7847070170097661  5.5350480623516365 29.6308317898682283
 -1.8789119252054005  5.5399287616071202 28.9384390837260241
