C  Ag O  C  O  H 
 1.0000000000000000
    12.3307199999999995    0.0000000000000000    0.0000000000000000
    -3.6992159999999981    6.4072320000000005    0.0000000000000000
     0.0000000000000024    0.0000000000000042   40.0000000000000071
 C   Ag  O   C   O   H  
  30  16  16   1   2   1
Cartesian
  1.2341979824823253  0.7151400549471760 19.6458345402360735
  0.0008746290486428  2.8531555229081280 19.6292309071247573
 -1.2320757399536717  4.9885481423190923 19.6527298807032587
  3.7004557468354129  0.7148842640284836 19.6452573261543968
  2.4674547051811087  2.8527802716727479 19.6250429085949385
  1.2345234379587322  4.9889232773643535 19.6548370278912827
  6.1660140385529081  0.7147411039817591 19.6467279416326761
  4.9340621913706704  2.8527628279475814 19.6231819182530245
  3.7005467281724540  4.9878664095738712 19.6568522356947994
  8.6324013889084767  0.7147312325614353 19.6478659336391388
  7.3996066406571037  2.8528865234173941 19.6269035183292679
  6.1659713566850094  4.9872436835494520 19.6549824705064786
 11.0988332857456111  0.7148379331040072 19.6480872529261390
  9.8655216822969063  2.8529476701872962 19.6310738122194621
  8.6316665557586401  4.9873495728890855 19.6514389113288068
 -0.0004758286236479  1.4382787677172868 19.6373231352024575
 -1.2330625779505624  3.5755153937359925 19.6340315856224485
 -2.4658659709381761  5.7099873156458187 19.6574245064723065
  2.4664541598585212  1.4381896775851033 19.6321156454238270
  1.2343595908056426  3.5762327249765824 19.6341514175774918
  0.0006051928100672  5.7103225757877860 19.6587751574778942
  4.9331036738645162  1.4383809595062473 19.6331536927962524
  3.7006334039914974  3.5760102071356705 19.6335748385236819
  2.4672318354502871  5.7099518296277223 19.6591751553922585
  7.3990701589537080  1.4382280389580233 19.6374682008196615
  6.1653090685511271  3.5755456282635198 19.6325295221708274
  4.9330431883695756  5.7088868805630497 19.6597335896863790
  9.8644451032579354  1.4377243055244828 19.6401923385212669
  8.6309500334909401  3.5752783271845261 19.6330325547636448
  7.3986471395443107  5.7091796659694687 19.6575098854536208
  1.9124590758191577  3.9712876168757578 25.0363459738615646
  4.9950637681433312  3.9530151270094844 25.0358101718560242
  8.0738534134396165  3.9463288531519467 25.0265751753279986
 -1.1761538297913101  3.9494791347801237 25.0281640936591252
  5.2946926890425852  0.7326923139206351 25.0852489357254882
  8.3744942469497445  0.7154270890791811 25.0785051279347861
 11.4625191472444019  0.7365135536091140 25.0702378784015281
  2.2148575675497546  0.7424467561391062 25.0745914450480036
  0.1941039429846554  5.5238494335186337 27.3006289950579131
  3.3045455723036992  5.5256708189949562 27.3821224678086672
  6.4030441588567975  5.5225296073283028 27.2957950429915961
 -2.8681477170366323  5.5219012860254155 27.2969210212010971
  0.5205215719751233  2.3294023908355377 22.8357439273025022
  3.6028883466577049  2.3350770967431731 22.8369504345424659
  6.6849079968502547  2.3306803763594286 22.8355826729702684
  9.7678050036611470  2.3250647203346797 22.8344286689369582
  2.0557000035009390  3.7070742927896774 22.9537362507664646
  5.1414847387911360  3.7076187700892822 22.9558247305390530
  8.2254654776308929  3.7012195755988557 22.9537436510768025
 -1.0264335234505280  3.7003531201542388 22.9556988211564530
  1.7182198855585842  4.1638140079549553 27.1214632810706391
  4.8957408191714524  4.1538335845058674 27.1225700237596712
  7.9383467135241599  4.1506405328832336 27.1162517180583436
 -1.3369223180463765  4.1541063277094201 27.1150231541298226
  5.4000114027139690  0.4902748734545737 27.1663826137086915
  8.5867652864393502  0.4895069036289106 27.1597960972370807
 11.6301882811472588  0.4891635308818003 27.1543600205394497
  2.3499599423958899  0.4909981390835833 27.1559571675839564
  2.0685418747281350  0.9665310602076557 23.0041689252318839
  5.1457159047381520  0.9682583242426797 23.0073195938208244
  8.2278030334772225  0.9602540326450557 23.0006037956400569
 11.3154207395851341  0.9582581897487086 22.9977786545041631
  3.3159917023542946  5.5102932521586361 29.5457040404902251
  2.2561829901170807  5.5083839360756111 30.1007117953869994
  4.5137533324811150  5.5115529234943015 30.1837052211294541
  4.3039274076460714  5.5141638884471025 31.1447425026270395
