C  Cu O  C  O  H 
 1.0000000000000000
    12.3307199999999995    0.0000000000000000    0.0000000000000000
    -3.6992159999999981    6.4072320000000005    0.0000000000000000
     0.0000000000000024    0.0000000000000042   40.0000000000000071
 C   Cu  O   C   O   H  
  30  16  16   1   1   2
Cartesian
  1.2334060321710341  0.7072825444217393 19.8309916911631525
  0.0000847751826889  2.8443883437916964 19.8271899793595097
 -1.2329443557430366  4.9800825981334933 19.8393269251229931
  3.6993664967398270  0.7075897741412868 19.8231644390120287
  2.4661828391310303  2.8437281963454315 19.8137893049767015
  1.2332492498663896  4.9798259082793477 19.8368556865657730
  6.1653376547138592  0.7075592083577021 19.8277677512229928
  4.9328015427918146  2.8436960602239019 19.8134284410040635
  3.6993160014431821  4.9796800309213083 19.8401830205251386
  8.6316861364540500  0.7068694635486167 19.8395180283417112
  7.3989495887454293  2.8440301046373131 19.8263555108260974
  6.1653384437757790  4.9795506557262073 19.8442890862292849
 11.0979625122262373  0.7069881589128632 19.8414142452373206
  9.8648024427715590  2.8446256138185002 19.8354265254947677
  8.6315685731191287  4.9799722957202501 19.8437169067908599
 -0.0001642901462945  1.4285670488932605 19.8313633503127846
 -1.2328006492012102  3.5664669650447154 19.8328415173862815
 -2.4658681516861245  5.7009224619162158 19.8423462766486480
  2.4661156119044607  1.4292218428426668 19.8165508485522253
  1.2335916458079321  3.5661058712301976 19.8243805078199244
  0.0002242184935399  5.7012346900800459 19.8378917861762361
  4.9324234790566948  1.4292052515328149 19.8146493363586096
  3.6992518742829845  3.5656300220576194 19.8214505259520273
  2.4663250952872744  5.7007543434060084 19.8394530454325384
  7.3986353692406448  1.4289370791151537 19.8281501687191586
  6.1650699534468139  3.5660030733963941 19.8270378676829786
  4.9324325171683245  5.7006467191779517 19.8453834971550442
  9.8643344020817825  1.4283572290292348 19.8390036405886789
  8.6313625777709930  3.5662654208031470 19.8343250274514666
  7.3986764350570438  5.7004098828972305 19.8468876433606951
  1.8989347623326287  3.9369927732842238 24.7237459617257720
  4.9832370524073202  3.9415210305733090 24.7223705735029888
  8.0481518710197761  3.9344970224181655 24.7231782049824211
 -1.1646950835931198  3.9267047879187249 24.7280870017041607
  5.3059099320576362  0.7496849923549389 24.7463991296196966
  8.3893773783904777  0.7506248681049570 24.7475536576164288
 11.4556618447700629  0.7601579289285155 24.7487382747175602
  2.2377647747109419  0.7524208908552588 24.7428619643931604
  0.2129908838390815  5.5366729930302965 26.5669116299076613
  3.2924069667153315  5.5416897364998983 26.5597454912908724
  6.3724362068084295  5.5450815813196721 26.5664268895480795
 -2.8723730201133275  5.5369521963104553 26.4806554992563683
  0.5229084804659705  2.3383489126539931 22.9484142700235907
  3.6055304130560524  2.3402042106115295 22.9476081151339031
  6.6887693936814401  2.3400165721102271 22.9480649315824827
  9.7709705706739136  2.3385175937891995 22.9508973657530326
  2.0595436928839050  3.5171319309619995 22.9777235704171545
  5.1439217643165556  3.5179252650741502 22.9775588329862011
  8.2276173006784887  3.5178052039922729 22.9819688069539687
 -1.0219514902631546  3.5171875306527873 22.9827504680861772
  1.7583012543042007  4.3629562801872686 26.4745607581181730
  4.8363483166727974  4.3679480608142995 26.4726921245150137
  7.9081029422325919  4.3662650198788189 26.4685049166311721
 -1.3158007409184305  4.3575339615449433 26.4734608610303752
  5.4465230806477463  0.3095653746974977 26.4940607111016924
  8.5259846389137479  0.3141162443526320 26.4963224738601717
 11.6041959999484678  0.3151583428383942 26.4912035920661246
  2.3732814031273044  0.3067411751761445 26.4852585788925801
  2.0682195718018681  1.1631171402254163 22.9993846318685478
  5.1499136020626821  1.1644673162180725 22.9994323331525905
  8.2325816659313809  1.1619537433181146 23.0002352072864049
 11.3156563855596435  1.1610869967959869 23.0012296517521406
 -2.8763651431154966  5.5404856710435713 29.4274485156344348
 -2.8694748441985154  5.5439119992070154 30.6488122932079605
 -2.8828918946695650  6.4931551416907514 28.8471855389776088
 -2.8765337487793916  4.5845800808745354 28.8528064685179437
