C  Cu O  C  O 
 1.0000000000000000
    12.3307199999999995    0.0000000000000000    0.0000000000000000
    -3.6992159999999981    6.4072320000000005    0.0000000000000000
     0.0000000000000024    0.0000000000000042   40.0000000000000071
 C   Cu  O   C   O  
  30  16  16   1   1
Cartesian
  1.2334060321710341  0.7072825444217393 19.8309916911631525
  0.0000847751826889  2.8443883437916964 19.8271899793595097
 -1.2329443557430366  4.9800825981334933 19.8393269251229931
  3.6993664967398270  0.7075897741412868 19.8231644390120287
  2.4661828391310303  2.8437281963454315 19.8137893049767015
  1.2332492498663896  4.9798259082793477 19.8368556865657730
  6.1653376547138592  0.7075592083577021 19.8277677512229928
  4.9328015427918146  2.8436960602239019 19.8134284410040635
  3.6993160014431821  4.9796800309213083 19.8401830205251386
  8.6316861364540500  0.7068694635486167 19.8395180283417112
  7.3989495887454293  2.8440301046373131 19.8263555108260974
  6.1653384437757790  4.9795506557262073 19.8442890862292849
 11.0979625122262373  0.7069881589128632 19.8414142452373206
  9.8648024427715590  2.8446256138185002 19.8354265254947677
  8.6315685731191287  4.9799722957202501 19.8437169067908599
 -0.0001642901462945  1.4285670488932605 19.8313633503127846
 -1.2328006492012102  3.5664669650447154 19.8328415173862815
 -2.4658681516861245  5.7009224619162158 19.8423462766486480
  2.4661156119044607  1.4292218428426668 19.8165508485522253
  1.2335916458079321  3.5661058712301976 19.8243805078199244
  0.0002242184935399  5.7012346900800459 19.8378917861762361
  4.9324234790566948  1.4292052515328149 19.8146493363586096
  3.6992518742829845  3.5656300220576194 19.8214505259520273
  2.4663250952872744  5.7007543434060084 19.8394530454325384
  7.3986353692406448  1.4289370791151537 19.8281501687191586
  6.1650699534468139  3.5660030733963941 19.8270378676829786
  4.9324325171683245  5.7006467191779517 19.8453834971550442
  9.8643344020817825  1.4283572290292348 19.8390036405886789
  8.6313625777709930  3.5662654208031470 19.8343250274514666
  7.3986764350570438  5.7004098828972305 19.8468876433606951
  1.9027284949864032  3.9427462176265462 24.7198344558065521
  4.9812553811126801  3.9431221445462090 24.7197264804762753
  8.0584729263959698  3.9466405074237052 24.7253606387842488
 -1.1709800957313494  3.9416181883540844 24.7251308610869174
  5.3080409916143587  0.7471282896554798 24.7435165337293981
  8.3848991391943883  0.7457779957838079 24.7441806819258829
 11.4593381013202684  0.7459758279421619 24.7457270754073164
  2.2304813455733412  0.7417409449807847 24.7445285484535340
  0.2353940227932210  5.5391429513216348 26.5537051179205186
  3.2917075321732421  5.5400891057682751 26.5585407523306749
  6.3481446374027648  5.5409092571651080 26.5543036919760489
 -2.8738929333285350  5.5405522741255711 26.6682668550939717
  0.5229084804659705  2.3383489126539931 22.9484142700235907
  3.6055304130560524  2.3402042106115295 22.9476081151339031
  6.6887693936814401  2.3400165721102271 22.9480649315824827
  9.7709705706739136  2.3385175937891995 22.9508973657530326
  2.0595436928839050  3.5171319309619995 22.9777235704171545
  5.1439217643165556  3.5179252650741502 22.9775588329862011
  8.2276173006784887  3.5178052039922729 22.9819688069539687
 -1.0219514902631546  3.5171875306527873 22.9827504680861772
  1.7648587737863601  4.3601150686981907 26.4730002452400477
  4.8247119250032613  4.3607837632316269 26.4707573433414112
  7.8371246633156506  4.3479548562837591 26.4687672184414176
 -1.2472705654795881  4.3420377639636456 26.4796983075567738
  5.4573111808716179  0.3140329400703669 26.4915535010714898
  8.5174628521477054  0.3144942956623338 26.4944487803485664
 11.5286508727610961  0.3340107955247533 26.4977253457042004
  2.4464450169113703  0.3284262618756740 26.4855216455842815
  2.0682195718018681  1.1631171402254163 22.9993846318685478
  5.1499136020626821  1.1644673162180725 22.9994323331525905
  8.2325816659313809  1.1619537433181146 23.0002352072864049
 11.3156563855596435  1.1610869967959869 23.0012296517521406
 -2.8739171873475065  5.5338600578588650 28.6141697182540113
 -2.8737560891528355  5.5404075966367214 29.7574903000805193
