C  Cu O  C  H 
 1.0000000000000000
    12.3307199999999995    0.0000000000000000    0.0000000000000000
    -3.6992159999999981    6.4072320000000005    0.0000000000000000
     0.0000000000000024    0.0000000000000042   40.0000000000000071
 C   Cu  O   C   H  
  30  16  17   1   3
Cartesian
  1.2334060321710341  0.7072825444217393 19.8309916911631525
  0.0000847751826889  2.8443883437916964 19.8271899793595097
 -1.2329443557430366  4.9800825981334933 19.8393269251229931
  3.6993664967398270  0.7075897741412868 19.8231644390120287
  2.4661828391310303  2.8437281963454315 19.8137893049767015
  1.2332492498663896  4.9798259082793477 19.8368556865657730
  6.1653376547138592  0.7075592083577021 19.8277677512229928
  4.9328015427918146  2.8436960602239019 19.8134284410040635
  3.6993160014431821  4.9796800309213083 19.8401830205251386
  8.6316861364540500  0.7068694635486167 19.8395180283417112
  7.3989495887454293  2.8440301046373131 19.8263555108260974
  6.1653384437757790  4.9795506557262073 19.8442890862292849
 11.0979625122262373  0.7069881589128632 19.8414142452373206
  9.8648024427715590  2.8446256138185002 19.8354265254947677
  8.6315685731191287  4.9799722957202501 19.8437169067908599
 -0.0001642901462945  1.4285670488932605 19.8313633503127846
 -1.2328006492012102  3.5664669650447154 19.8328415173862815
 -2.4658681516861245  5.7009224619162158 19.8423462766486480
  2.4661156119044607  1.4292218428426668 19.8165508485522253
  1.2335916458079321  3.5661058712301976 19.8243805078199244
  0.0002242184935399  5.7012346900800459 19.8378917861762361
  4.9324234790566948  1.4292052515328149 19.8146493363586096
  3.6992518742829845  3.5656300220576194 19.8214505259520273
  2.4663250952872744  5.7007543434060084 19.8394530454325384
  7.3986353692406448  1.4289370791151537 19.8281501687191586
  6.1650699534468139  3.5660030733963941 19.8270378676829786
  4.9324325171683245  5.7006467191779517 19.8453834971550442
  9.8643344020817825  1.4283572290292348 19.8390036405886789
  8.6313625777709930  3.5662654208031470 19.8343250274514666
  7.3986764350570438  5.7004098828972305 19.8468876433606951
  1.9106460665923337  3.9351282787203106 24.7245499990670190
  4.9703373664161390  3.9324094523905848 24.7228780775285131
  8.0384606334815114  3.9587390969587819 24.7178356551264180
 -1.1510420069422089  3.9457342868067746 24.7253085969198949
  5.3179115113602036  0.7587700660200014 24.7467127173732813
  8.3772408581283031  0.7519294103962649 24.7484764862763065
 11.4354781194467705  0.7391209973761889 24.7466853654028931
  2.2522186896573047  0.7297130204880304 24.7371373601522286
  0.2421012630981556  5.5401018776462063 26.5611134921572685
  3.2935668708555603  5.5398898610096561 26.5618512682726227
  6.3459735358211917  5.5418826149395963 26.5632279613531530
 -2.8702245511951325  5.5380652001663808 26.7802775127644317
  0.5229084804659705  2.3383489126539931 22.9484142700235907
  3.6055304130560524  2.3402042106115295 22.9476081151339031
  6.6887693936814401  2.3400165721102271 22.9480649315824827
  9.7709705706739136  2.3385175937891995 22.9508973657530326
  2.0595436928839050  3.5171319309619995 22.9777235704171545
  5.1439217643165556  3.5179252650741502 22.9775588329862011
  8.2276173006784887  3.5178052039922729 22.9819688069539687
 -1.0219514902631546  3.5171875306527873 22.9827504680861772
  1.7727789290995868  4.3590599252993760 26.4755872162692860
  4.8175458473011439  4.3598312782119821 26.4716744092091325
  7.8306592086818378  4.3630125014819692 26.4536637589226515
 -1.2366221585307207  4.3561686596280014 26.4698553743074960
  5.4690638290329625  0.3153483847598073 26.4914927966126257
  8.5121794452729311  0.3163764949819741 26.4972732604249437
 11.5231557906967943  0.3210735436053129 26.4891661330470676
  2.4569315923094992  0.3148647599513065 26.4713936619728862
  2.0682195718018681  1.1631171402254163 22.9993846318685478
  5.1499136020626821  1.1644673162180725 22.9994323331525905
  8.2325816659313809  1.1619537433181146 23.0002352072864049
 11.3156563855596435  1.1610869967959869 23.0012296517521406
 -2.8948631373273725  5.5215564521576947 28.6441707436107365
 -2.8748917912287855  5.5404577348385775 29.9790280264590656
 -1.8514683963259218  5.5399942634157124 30.3923461046515264
 -3.3859806575361602  6.4241641573787334 30.3985504157413686
 -3.3839391921315234  4.6575324767655495 30.4051109816847109
