C  Ag O  C  H 
 1.0000000000000000
    12.3307199999999995    0.0000000000000000    0.0000000000000000
    -3.6992159999999981    6.4072320000000005    0.0000000000000000
     0.0000000000000024    0.0000000000000042   40.0000000000000071
 C   Ag  O   C   H  
  30  16  17   1   3
Cartesian
  1.2341979824823253  0.7151400549471760 19.6458345402360735
  0.0008746290486428  2.8531555229081280 19.6292309071247573
 -1.2320757399536717  4.9885481423190923 19.6527298807032587
  3.7004557468354129  0.7148842640284836 19.6452573261543968
  2.4674547051811087  2.8527802716727479 19.6250429085949385
  1.2345234379587322  4.9889232773643535 19.6548370278912827
  6.1660140385529081  0.7147411039817591 19.6467279416326761
  4.9340621913706704  2.8527628279475814 19.6231819182530245
  3.7005467281724540  4.9878664095738712 19.6568522356947994
  8.6324013889084767  0.7147312325614353 19.6478659336391388
  7.3996066406571037  2.8528865234173941 19.6269035183292679
  6.1659713566850094  4.9872436835494520 19.6549824705064786
 11.0988332857456111  0.7148379331040072 19.6480872529261390
  9.8655216822969063  2.8529476701872962 19.6310738122194621
  8.6316665557586401  4.9873495728890855 19.6514389113288068
 -0.0004758286236479  1.4382787677172868 19.6373231352024575
 -1.2330625779505624  3.5755153937359925 19.6340315856224485
 -2.4658659709381761  5.7099873156458187 19.6574245064723065
  2.4664541598585212  1.4381896775851033 19.6321156454238270
  1.2343595908056426  3.5762327249765824 19.6341514175774918
  0.0006051928100672  5.7103225757877860 19.6587751574778942
  4.9331036738645162  1.4383809595062473 19.6331536927962524
  3.7006334039914974  3.5760102071356705 19.6335748385236819
  2.4672318354502871  5.7099518296277223 19.6591751553922585
  7.3990701589537080  1.4382280389580233 19.6374682008196615
  6.1653090685511271  3.5755456282635198 19.6325295221708274
  4.9330431883695756  5.7088868805630497 19.6597335896863790
  9.8644451032579354  1.4377243055244828 19.6401923385212669
  8.6309500334909401  3.5752783271845261 19.6330325547636448
  7.3986471395443107  5.7091796659694687 19.6575098854536208
  1.8988034756716803  3.9725130962677384 25.0166976618965933
  5.0014735334797011  3.9492849067656137 25.0373217866393105
  8.0829665952472105  3.9640015854862436 25.0242384960503053
 -1.1818127052008083  3.9613227115666629 25.0264694676137935
  5.3083471131664224  0.7366477889555255 25.0879626953095780
  8.3706909502551756  0.7155076948159501 25.0771062399511422
 11.4661371947802913  0.7500858720249590 25.0725651790504074
  2.2269319001387657  0.7527468870827310 25.0798076010782651
  0.2142737738421254  5.5299224869426258 27.3009947687926235
  3.3086800352601453  5.4996709844987501 27.4148198595660197
  6.3946037473791861  5.5323468623769942 27.2984339008633370
 -2.8624407941304595  5.5517245075434571 27.2972430430984936
  0.5205215719751233  2.3294023908355377 22.8357439273025022
  3.6028883466577049  2.3350770967431731 22.8369504345424659
  6.6849079968502547  2.3306803763594286 22.8355826729702684
  9.7678050036611470  2.3250647203346797 22.8344286689369582
  2.0557000035009390  3.7070742927896774 22.9537362507664646
  5.1414847387911360  3.7076187700892822 22.9558247305390530
  8.2254654776308929  3.7012195755988557 22.9537436510768025
 -1.0264335234505280  3.7003531201542388 22.9556988211564530
  1.7145920637627365  4.1496057557009882 27.0710459614070587
  4.8918064574794933  4.1497048519440769 27.1250891357898638
  7.9452024379641850  4.1780026630096510 27.1127598673085046
 -1.3350700441192311  4.1793698355674032 27.1127912384279277
  5.4477372777628288  0.4770423676819111 27.1684793577964534
  8.5447586383882719  0.4725837519173791 27.1581599195451417
 11.6186572970312376  0.5064790260904397 27.1554903956493305
  2.3718201805028674  0.5059287289454709 27.1620812729351080
  2.0685418747281350  0.9665310602076557 23.0041689252318839
  5.1457159047381520  0.9682583242426797 23.0073195938208244
  8.2278030334772225  0.9602540326450557 23.0006037956400569
 11.3154207395851341  0.9582581897487086 22.9977786545041631
  2.8180323313560933  4.8691339170483525 29.4657849348684060
  3.2598311211062749  5.5324109382356301 30.6066299320213062
  4.3641939439722304  5.6403267489338225 30.7331535181474678
  2.8445680709744372  6.5553599126982851 30.7708946241563517
  2.9096588578666345  4.9224773721081645 31.4776020123889566
