C  Ag O 
 1.0000000000000000
    12.3307199999999995    0.0000000000000000    0.0000000000000000
    -3.6992159999999981    6.4072320000000005    0.0000000000000000
     0.0000000000000024    0.0000000000000042   40.0000000000000071
 C   Ag  O  
  30  16  16
Cartesian
  1.2341979824823253  0.7151400549471760 19.6458345402360735
  0.0008746290486426  2.8531555229081280 19.6292309071247573
 -1.2320757399536717  4.9885481423190923 19.6527298807032587
  3.7004557468354129  0.7148842640284836 19.6452573261543968
  2.4674547051811087  2.8527802716727479 19.6250429085949385
  1.2345234379587327  4.9889232773643544 19.6548370278912827
  6.1660140385529081  0.7147411039817591 19.6467279416326761
  4.9340621913706704  2.8527628279475814 19.6231819182530245
  3.7005467281724536  4.9878664095738721 19.6568522356947994
  8.6324013889084767  0.7147312325614353 19.6478659336391388
  7.3996066406571037  2.8528865234173941 19.6269035183292679
  6.1659713566850094  4.9872436835494529 19.6549824705064786
 11.0988332857456111  0.7148379331040072 19.6480872529261390
  9.8655216822969063  2.8529476701872962 19.6310738122194621
  8.6316665557586383  4.9873495728890864 19.6514389113288068
 -0.0004758286236480  1.4382787677172870 19.6373231352024575
 -1.2330625779505624  3.5755153937359925 19.6340315856224485
 -2.4658659709381765  5.7099873156458196 19.6574245064723065
  2.4664541598585212  1.4381896775851035 19.6321156454238270
  1.2343595908056426  3.5762327249765824 19.6341514175774918
  0.0006051928100668  5.7103225757877869 19.6587751574778942
  4.9331036738645162  1.4383809595062476 19.6331536927962524
  3.7006334039914965  3.5760102071356705 19.6335748385236819
  2.4672318354502867  5.7099518296277232 19.6591751553922585
  7.3990701589537080  1.4382280389580235 19.6374682008196615
  6.1653090685511254  3.5755456282635198 19.6325295221708274
  4.9330431883695756  5.7088868805630497 19.6597335896863790
  9.8644451032579337  1.4377243055244830 19.6401923385212669
  8.6309500334909401  3.5752783271845261 19.6330325547636448
  7.3986471395443107  5.7091796659694696 19.6575098854536208
  1.9087903984925494  3.9590426373203549 25.0205599720347571
  4.9939333506863584  3.9567181316436053 25.0226935215513926
  8.0763429430883580  3.9511981824250757 25.0219577525271504
 -1.1759433267170520  3.9493714970072196 25.0245383644887411
  5.3006015255256509  0.7416129427161917 25.0768843686485212
  8.3818006721891276  0.7382672255304755 25.0713942329730912
 11.4661200932855802  0.7356103450516769 25.0683154100745362
  2.2176924724553029  0.7390241183095720 25.0738281952683586
  0.2075163850000652  5.5159593855217040 27.2912614957707902
  3.2914787596696877  5.5150651651938372 27.2915466882940727
  6.3739959972805362  5.5142305624138110 27.2897561495365402
 -2.8753018299586217  5.5145442884053910 27.2903264894854942
  0.5205215719751231  2.3294023908355381 22.8357439273025022
  3.6028883466577044  2.3350770967431735 22.8369504345424659
  6.6849079968502547  2.3306803763594290 22.8355826729702684
  9.7678050036611452  2.3250647203346801 22.8344286689369582
  2.0557000035009390  3.7070742927896774 22.9537362507664646
  5.1414847387911360  3.7076187700892822 22.9558247305390530
  8.2254654776308929  3.7012195755988557 22.9537436510768060
 -1.0264335234505280  3.7003531201542388 22.9556988211564565
  1.7543209460492877  4.1544355011611911 27.1084485354406581
  4.8379279600136691  4.1533911142687794 27.1103755992562476
  7.9198264161238443  4.1525200402626350 27.1097163589306547
 -1.3289437330312204  4.1532190884591778 27.1119046191770572
  5.4428224398039999  0.4747779618401023 27.1567596968215064
  8.5262732364079632  0.4746238962723559 27.1518890859487350
 11.6076256667497226  0.4739797758157938 27.1495118948344789
  2.3584286375505390  0.4744743389701917 27.1545100900521348
  2.0685418747281346  0.9665310602076558 23.0041689252318839
  5.1457159047381511  0.9682583242426798 23.0073195938208244
  8.2278030334772208  0.9602540326450557 23.0006037956400604
 11.3154207395851323  0.9582581897487087 22.9977786545041667
