C  Ag O  C  O  H 
 1.0000000000000000
    12.3307199999999995    0.0000000000000000    0.0000000000000000
    -3.6992159999999981    6.4072320000000005    0.0000000000000000
     0.0000000000000024    0.0000000000000042   40.0000000000000071
 C   Ag  O   C   O   H  
  30  16  16   1   1   1
Cartesian
  1.2341979824823253  0.7151400549471760 19.6458345402360735
  0.0008746290486428  2.8531555229081280 19.6292309071247573
 -1.2320757399536717  4.9885481423190923 19.6527298807032587
  3.7004557468354129  0.7148842640284836 19.6452573261543968
  2.4674547051811087  2.8527802716727479 19.6250429085949385
  1.2345234379587322  4.9889232773643535 19.6548370278912827
  6.1660140385529081  0.7147411039817591 19.6467279416326761
  4.9340621913706704  2.8527628279475814 19.6231819182530245
  3.7005467281724540  4.9878664095738712 19.6568522356947994
  8.6324013889084767  0.7147312325614353 19.6478659336391388
  7.3996066406571037  2.8528865234173941 19.6269035183292679
  6.1659713566850094  4.9872436835494520 19.6549824705064786
 11.0988332857456111  0.7148379331040072 19.6480872529261390
  9.8655216822969063  2.8529476701872962 19.6310738122194621
  8.6316665557586401  4.9873495728890855 19.6514389113288068
 -0.0004758286236479  1.4382787677172868 19.6373231352024575
 -1.2330625779505624  3.5755153937359925 19.6340315856224485
 -2.4658659709381761  5.7099873156458187 19.6574245064723065
  2.4664541598585212  1.4381896775851033 19.6321156454238270
  1.2343595908056426  3.5762327249765824 19.6341514175774918
  0.0006051928100672  5.7103225757877860 19.6587751574778942
  4.9331036738645162  1.4383809595062473 19.6331536927962524
  3.7006334039914974  3.5760102071356705 19.6335748385236819
  2.4672318354502871  5.7099518296277223 19.6591751553922585
  7.3990701589537080  1.4382280389580233 19.6374682008196615
  6.1653090685511271  3.5755456282635198 19.6325295221708274
  4.9330431883695756  5.7088868805630497 19.6597335896863790
  9.8644451032579354  1.4377243055244828 19.6401923385212669
  8.6309500334909401  3.5752783271845261 19.6330325547636448
  7.3986471395443107  5.7091796659694687 19.6575098854536208
  1.8999305817016667  3.9604829492541334 25.0301398654958014
  4.9950091378380774  3.9559732539832555 25.0308489086688581
  8.0749854553716354  3.9478201735820182 25.0277241865556412
 -1.1828761675509774  3.9473545906569125 25.0280690168071906
  5.2909394536541958  0.7377119626787166 25.0793098968744950
  8.3834586129205277  0.7315792689674999 25.0777349573358741
 11.4664526110696787  0.7358100647466370 25.0713882505423165
  2.2122712789476333  0.7385568283778369 25.0757882354206174
  0.1921879099029589  5.5203879364236510 27.2957694601632070
  3.2886323706367451  5.5200874125118000 27.3456309253957208
  6.3861408194001275  5.5185513467267731 27.2957250776230538
 -2.8767443840997178  5.5179196222871880 27.2997874021316740
  0.5205215719751233  2.3294023908355377 22.8357439273025022
  3.6028883466577049  2.3350770967431731 22.8369504345424659
  6.6849079968502547  2.3306803763594286 22.8355826729702684
  9.7678050036611470  2.3250647203346797 22.8344286689369582
  2.0557000035009390  3.7070742927896774 22.9537362507664646
  5.1414847387911360  3.7076187700892822 22.9558247305390530
  8.2254654776308929  3.7012195755988557 22.9537436510768025
 -1.0264335234505280  3.7003531201542388 22.9556988211564530
  1.7203816069412170  4.1550790605177523 27.1125587868299895
  4.8716051954137196  4.1509750799912846 27.1187202870986077
  7.9253245472524423  4.1488260387342235 27.1168854946998650
 -1.3386305331813853  4.1535853937540166 27.1142675871601924
  5.4075152502185748  0.4840792801339397 27.1538180076584119
  8.5612004245208624  0.4864280963953784 27.1563085872179713
 11.6171031801088649  0.4833210873695087 27.1549261349016575
  2.3478517970470798  0.4848017214175567 27.1580445217936592
  2.0685418747281350  0.9665310602076557 23.0041689252318839
  5.1457159047381520  0.9682583242426797 23.0073195938208244
  8.2278030334772225  0.9602540326450557 23.0006037956400569
 11.3154207395851341  0.9582581897487086 22.9977786545041631
  3.2782893517057055  5.5096098132637170 29.6715357129699875
  2.2715545789007621  5.5143633887505112 30.3094059664871871
  4.3066204513488460  5.5164107076193618 30.1040351373095447
